c 
p cnf 10 40
-5 -4 -1 0
5 2 9 0
-5 10 -2 0
7 9 -8 0
10 -7 -4 0
-6 -7 9 0
6 1 -3 0
-9 4 -5 0
-10 9 8 0
-8 6 1 0
5 8 -10 0
1 -7 6 0
-1 -8 -6 0
6 8 7 0
-2 10 1 0
5 -7 6 0
5 -3 4 0
-8 -1 -9 0
-1 6 3 0
7 -1 -6 0
-6 2 -10 0
-10 6 -5 0
7 -3 -4 0
-1 4 -3 0
-6 -2 5 0
-1 2 5 0
6 -10 -4 0
-4 6 3 0
-4 9 -5 0
6 -9 -2 0
-1 5 -9 0
-2 -4 -1 0
-1 -5 8 0
-6 4 -3 0
-9 1 -2 0
6 -5 9 0
9 2 4 0
-2 9 4 0
2 -5 8 0
-8 1 -5 0
